
Gurobi 11.0.0 (win64, C++) logging started Mon Jul 28 20:03:28 2025

Set parameter TokenServer to value "141.76.38.119"
### START HEURISTIC APPROACH APPROACH ###
ProblemVariant: 1
### START PREPROCESSING ###
## Start start solution procedure ##
Not enough vehicles for start solution, copying existing vehicle(s)...
Copied 2 vehicle(s). Total vehicles now: 13
Start solution with 13 Vehicles and total costs 739.757 in 1.27049 s.
### END PREPROCESSING ###
Route 0 0-23-1-22-28-0 : weight util 0.970149 | volume util 0.386000 | infeasible with packing heuristic | feasible with CP model
Route 1 0-33-16-17-0 : weight util 0.985075 | volume util 0.392844 | infeasible with packing heuristic | feasible with CP model
Route 2 0-6-2-30-0 : weight util 1.000000 | volume util 0.256889 | infeasible with packing heuristic | feasible with CP model
Route 3 0-8-19-14-0 : weight util 0.925373 | volume util 0.292356 | infeasible with packing heuristic | feasible with CP model
Route 4 0-10-31-12-0 : weight util 1.000000 | volume util 0.276978 | infeasible with packing heuristic | feasible with CP model
Route 5 0-20-15-13-27-0 : weight util 0.880597 | volume util 0.450578 | infeasible with packing heuristic | feasible with CP model
Route 6 0-9-32-0 : weight util 0.850746 | volume util 0.199044 | infeasible with packing heuristic | feasible with CP model
Route 7 0-25-18-24-3-0 : weight util 0.970149 | volume util 0.337222 | infeasible with packing heuristic | feasible with CP model
Route 8 0-21-5-29-0 : weight util 0.925373 | volume util 0.320689 | infeasible with packing heuristic | feasible with CP model
Route 9 0-7-11-35-0 : weight util 0.925373 | volume util 0.474867 | infeasible with packing heuristic | feasible with CP model
Route 10 0-4-34-26-0 : weight util 1.000000 | volume util 0.340467 | infeasible with packing heuristic | feasible with CP model
